; Options: -in -smt2
(set-option :produce-unsat-assumptions true)

(declare-fun start!26706 () Bool)

(assert start!26706)

(declare-fun b!137056 () Bool)

(declare-fun res!114093 () Bool)

(declare-fun e!91051 () Bool)

(assert (=> b!137056 (=> (not res!114093) (not e!91051))))

(declare-datatypes ((array!6215 0))(
  ( (array!6216 (arr!3499 (Array (_ BitVec 32) (_ BitVec 8))) (size!2813 (_ BitVec 32))) )
))
(declare-datatypes ((BitStream!4890 0))(
  ( (BitStream!4891 (buf!3220 array!6215) (currentByte!6027 (_ BitVec 32)) (currentBit!6022 (_ BitVec 32))) )
))
(declare-fun thiss!1634 () BitStream!4890)

(declare-fun invariant!0 ((_ BitVec 32) (_ BitVec 32) (_ BitVec 32)) Bool)

(assert (=> b!137056 (= res!114093 (invariant!0 (currentBit!6022 thiss!1634) (currentByte!6027 thiss!1634) (size!2813 (buf!3220 thiss!1634))))))

(declare-fun b!137057 () Bool)

(declare-fun e!91050 () Bool)

(declare-fun e!91056 () Bool)

(assert (=> b!137057 (= e!91050 (not e!91056))))

(declare-fun res!114098 () Bool)

(assert (=> b!137057 (=> res!114098 e!91056)))

(declare-datatypes ((tuple2!11914 0))(
  ( (tuple2!11915 (_1!6280 BitStream!4890) (_2!6280 array!6215)) )
))
(declare-fun lt!213454 () tuple2!11914)

(declare-fun arr!237 () array!6215)

(declare-datatypes ((tuple2!11916 0))(
  ( (tuple2!11917 (_1!6281 BitStream!4890) (_2!6281 BitStream!4890)) )
))
(declare-fun lt!213469 () tuple2!11916)

(assert (=> b!137057 (= res!114098 (or (not (= (size!2813 (_2!6280 lt!213454)) (size!2813 arr!237))) (not (= (_1!6280 lt!213454) (_2!6281 lt!213469)))))))

(declare-fun to!404 () (_ BitVec 32))

(declare-fun from!447 () (_ BitVec 32))

(declare-fun readByteArrayLoopPure!0 (BitStream!4890 array!6215 (_ BitVec 32) (_ BitVec 32)) tuple2!11914)

(assert (=> b!137057 (= lt!213454 (readByteArrayLoopPure!0 (_1!6281 lt!213469) arr!237 (bvadd #b00000000000000000000000000000001 from!447) to!404))))

(declare-datatypes ((Unit!8573 0))(
  ( (Unit!8574) )
))
(declare-datatypes ((tuple2!11918 0))(
  ( (tuple2!11919 (_1!6282 Unit!8573) (_2!6282 BitStream!4890)) )
))
(declare-fun lt!213463 () tuple2!11918)

(declare-fun lt!213464 () tuple2!11918)

(declare-fun lt!213479 () (_ BitVec 64))

(declare-fun validate_offset_bits!1 ((_ BitVec 64) (_ BitVec 64) (_ BitVec 64) (_ BitVec 64)) Bool)

(assert (=> b!137057 (validate_offset_bits!1 ((_ sign_extend 32) (size!2813 (buf!3220 (_2!6282 lt!213463)))) ((_ sign_extend 32) (currentByte!6027 (_2!6282 lt!213464))) ((_ sign_extend 32) (currentBit!6022 (_2!6282 lt!213464))) lt!213479)))

(declare-fun lt!213477 () Unit!8573)

(declare-fun validateOffsetBitsContentIrrelevancyLemma!0 (BitStream!4890 array!6215 (_ BitVec 64)) Unit!8573)

(assert (=> b!137057 (= lt!213477 (validateOffsetBitsContentIrrelevancyLemma!0 (_2!6282 lt!213464) (buf!3220 (_2!6282 lt!213463)) lt!213479))))

(declare-fun reader!0 (BitStream!4890 BitStream!4890) tuple2!11916)

(assert (=> b!137057 (= lt!213469 (reader!0 (_2!6282 lt!213464) (_2!6282 lt!213463)))))

(declare-fun b!137058 () Bool)

(declare-fun e!91046 () Bool)

(assert (=> b!137058 (= e!91051 (not e!91046))))

(declare-fun res!114097 () Bool)

(assert (=> b!137058 (=> res!114097 e!91046)))

(declare-fun lt!213474 () tuple2!11914)

(declare-fun lt!213459 () tuple2!11914)

(declare-fun arrayRangesEq!216 (array!6215 array!6215 (_ BitVec 32) (_ BitVec 32)) Bool)

(assert (=> b!137058 (= res!114097 (not (arrayRangesEq!216 (_2!6280 lt!213474) (_2!6280 lt!213459) #b00000000000000000000000000000000 to!404)))))

(declare-fun lt!213456 () tuple2!11914)

(assert (=> b!137058 (arrayRangesEq!216 (_2!6280 lt!213474) (_2!6280 lt!213456) #b00000000000000000000000000000000 to!404)))

(declare-fun lt!213462 () Unit!8573)

(declare-fun lt!213458 () tuple2!11916)

(declare-fun readByteArrayLoopArrayPrefixLemma!0 (BitStream!4890 array!6215 (_ BitVec 32) (_ BitVec 32)) Unit!8573)

(assert (=> b!137058 (= lt!213462 (readByteArrayLoopArrayPrefixLemma!0 (_1!6281 lt!213458) arr!237 from!447 to!404))))

(declare-fun lt!213478 () array!6215)

(declare-fun withMovedByteIndex!0 (BitStream!4890 (_ BitVec 32)) BitStream!4890)

(assert (=> b!137058 (= lt!213456 (readByteArrayLoopPure!0 (withMovedByteIndex!0 (_1!6281 lt!213458) #b00000000000000000000000000000001) lt!213478 (bvadd #b00000000000000000000000000000001 from!447) to!404))))

(declare-fun lt!213472 () tuple2!11916)

(assert (=> b!137058 (= lt!213459 (readByteArrayLoopPure!0 (_1!6281 lt!213472) lt!213478 (bvadd #b00000000000000000000000000000001 from!447) to!404))))

(declare-datatypes ((tuple2!11920 0))(
  ( (tuple2!11921 (_1!6283 BitStream!4890) (_2!6283 (_ BitVec 8))) )
))
(declare-fun lt!213466 () tuple2!11920)

(assert (=> b!137058 (= lt!213478 (array!6216 (store (arr!3499 arr!237) from!447 (_2!6283 lt!213466)) (size!2813 arr!237)))))

(declare-fun lt!213465 () (_ BitVec 32))

(declare-fun validate_offset_bytes!0 ((_ BitVec 64) (_ BitVec 64) (_ BitVec 64) (_ BitVec 32)) Bool)

(assert (=> b!137058 (validate_offset_bytes!0 ((_ sign_extend 32) (size!2813 (buf!3220 (_2!6282 lt!213463)))) ((_ sign_extend 32) (currentByte!6027 (_2!6282 lt!213464))) ((_ sign_extend 32) (currentBit!6022 (_2!6282 lt!213464))) lt!213465)))

(declare-fun lt!213468 () Unit!8573)

(declare-fun validateOffsetBytesContentIrrelevancyLemma!0 (BitStream!4890 array!6215 (_ BitVec 32)) Unit!8573)

(assert (=> b!137058 (= lt!213468 (validateOffsetBytesContentIrrelevancyLemma!0 (_2!6282 lt!213464) (buf!3220 (_2!6282 lt!213463)) lt!213465))))

(assert (=> b!137058 (= (_1!6280 lt!213474) (_2!6281 lt!213458))))

(assert (=> b!137058 (= lt!213474 (readByteArrayLoopPure!0 (_1!6281 lt!213458) arr!237 from!447 to!404))))

(assert (=> b!137058 (validate_offset_bytes!0 ((_ sign_extend 32) (size!2813 (buf!3220 (_2!6282 lt!213463)))) ((_ sign_extend 32) (currentByte!6027 thiss!1634)) ((_ sign_extend 32) (currentBit!6022 thiss!1634)) (bvsub to!404 from!447))))

(declare-fun lt!213480 () Unit!8573)

(assert (=> b!137058 (= lt!213480 (validateOffsetBytesContentIrrelevancyLemma!0 thiss!1634 (buf!3220 (_2!6282 lt!213463)) (bvsub to!404 from!447)))))

(assert (=> b!137058 (= (_2!6283 lt!213466) (select (arr!3499 arr!237) from!447))))

(declare-fun readBytePure!0 (BitStream!4890) tuple2!11920)

(assert (=> b!137058 (= lt!213466 (readBytePure!0 (_1!6281 lt!213458)))))

(assert (=> b!137058 (= lt!213472 (reader!0 (_2!6282 lt!213464) (_2!6282 lt!213463)))))

(assert (=> b!137058 (= lt!213458 (reader!0 thiss!1634 (_2!6282 lt!213463)))))

(declare-fun e!91052 () Bool)

(assert (=> b!137058 e!91052))

(declare-fun res!114105 () Bool)

(assert (=> b!137058 (=> (not res!114105) (not e!91052))))

(declare-fun lt!213461 () tuple2!11920)

(declare-fun lt!213467 () tuple2!11920)

(declare-fun bitIndex!0 ((_ BitVec 32) (_ BitVec 32) (_ BitVec 32)) (_ BitVec 64))

(assert (=> b!137058 (= res!114105 (= (bitIndex!0 (size!2813 (buf!3220 (_1!6283 lt!213461))) (currentByte!6027 (_1!6283 lt!213461)) (currentBit!6022 (_1!6283 lt!213461))) (bitIndex!0 (size!2813 (buf!3220 (_1!6283 lt!213467))) (currentByte!6027 (_1!6283 lt!213467)) (currentBit!6022 (_1!6283 lt!213467)))))))

(declare-fun lt!213460 () Unit!8573)

(declare-fun lt!213455 () BitStream!4890)

(declare-fun readBytePrefixLemma!0 (BitStream!4890 BitStream!4890) Unit!8573)

(assert (=> b!137058 (= lt!213460 (readBytePrefixLemma!0 lt!213455 (_2!6282 lt!213463)))))

(assert (=> b!137058 (= lt!213467 (readBytePure!0 (BitStream!4891 (buf!3220 (_2!6282 lt!213463)) (currentByte!6027 thiss!1634) (currentBit!6022 thiss!1634))))))

(assert (=> b!137058 (= lt!213461 (readBytePure!0 lt!213455))))

(assert (=> b!137058 (= lt!213455 (BitStream!4891 (buf!3220 (_2!6282 lt!213464)) (currentByte!6027 thiss!1634) (currentBit!6022 thiss!1634)))))

(declare-fun e!91055 () Bool)

(assert (=> b!137058 e!91055))

(declare-fun res!114100 () Bool)

(assert (=> b!137058 (=> (not res!114100) (not e!91055))))

(declare-fun isPrefixOf!0 (BitStream!4890 BitStream!4890) Bool)

(assert (=> b!137058 (= res!114100 (isPrefixOf!0 thiss!1634 (_2!6282 lt!213463)))))

(declare-fun lt!213470 () Unit!8573)

(declare-fun lemmaIsPrefixTransitive!0 (BitStream!4890 BitStream!4890 BitStream!4890) Unit!8573)

(assert (=> b!137058 (= lt!213470 (lemmaIsPrefixTransitive!0 thiss!1634 (_2!6282 lt!213464) (_2!6282 lt!213463)))))

(declare-fun e!91054 () Bool)

(assert (=> b!137058 e!91054))

(declare-fun res!114092 () Bool)

(assert (=> b!137058 (=> (not res!114092) (not e!91054))))

(assert (=> b!137058 (= res!114092 (= (size!2813 (buf!3220 (_2!6282 lt!213464))) (size!2813 (buf!3220 (_2!6282 lt!213463)))))))

(declare-fun appendByteArrayLoop!0 (BitStream!4890 array!6215 (_ BitVec 32) (_ BitVec 32)) tuple2!11918)

(assert (=> b!137058 (= lt!213463 (appendByteArrayLoop!0 (_2!6282 lt!213464) arr!237 (bvadd #b00000000000000000000000000000001 from!447) to!404))))

(assert (=> b!137058 (validate_offset_bytes!0 ((_ sign_extend 32) (size!2813 (buf!3220 (_2!6282 lt!213464)))) ((_ sign_extend 32) (currentByte!6027 (_2!6282 lt!213464))) ((_ sign_extend 32) (currentBit!6022 (_2!6282 lt!213464))) lt!213465)))

(assert (=> b!137058 (= lt!213465 (bvsub (bvsub to!404 from!447) #b00000000000000000000000000000001))))

(declare-fun lt!213471 () Unit!8573)

(declare-fun validateOffsetBytesFromBitIndexLemma!0 (BitStream!4890 BitStream!4890 (_ BitVec 64) (_ BitVec 32)) Unit!8573)

(assert (=> b!137058 (= lt!213471 (validateOffsetBytesFromBitIndexLemma!0 thiss!1634 (_2!6282 lt!213464) #b0000000000000000000000000000000000000000000000000000000000001000 (bvsub to!404 from!447)))))

(declare-fun e!91048 () Bool)

(assert (=> b!137058 e!91048))

(declare-fun res!114103 () Bool)

(assert (=> b!137058 (=> (not res!114103) (not e!91048))))

(assert (=> b!137058 (= res!114103 (= (size!2813 (buf!3220 thiss!1634)) (size!2813 (buf!3220 (_2!6282 lt!213464)))))))

(declare-fun appendByte!0 (BitStream!4890 (_ BitVec 8)) tuple2!11918)

(assert (=> b!137058 (= lt!213464 (appendByte!0 thiss!1634 (select (arr!3499 arr!237) from!447)))))

(declare-fun b!137059 () Bool)

(declare-fun res!114104 () Bool)

(assert (=> b!137059 (=> (not res!114104) (not e!91048))))

(assert (=> b!137059 (= res!114104 (isPrefixOf!0 thiss!1634 (_2!6282 lt!213464)))))

(declare-fun b!137060 () Bool)

(declare-fun res!114096 () Bool)

(assert (=> b!137060 (=> (not res!114096) (not e!91050))))

(assert (=> b!137060 (= res!114096 (isPrefixOf!0 (_2!6282 lt!213464) (_2!6282 lt!213463)))))

(declare-fun b!137062 () Bool)

(declare-fun res!114101 () Bool)

(assert (=> b!137062 (=> (not res!114101) (not e!91051))))

(assert (=> b!137062 (= res!114101 (validate_offset_bytes!0 ((_ sign_extend 32) (size!2813 (buf!3220 thiss!1634))) ((_ sign_extend 32) (currentByte!6027 thiss!1634)) ((_ sign_extend 32) (currentBit!6022 thiss!1634)) (bvsub to!404 from!447)))))

(declare-fun b!137063 () Bool)

(assert (=> b!137063 (= e!91055 (invariant!0 (currentBit!6022 thiss!1634) (currentByte!6027 thiss!1634) (size!2813 (buf!3220 (_2!6282 lt!213464)))))))

(declare-fun b!137064 () Bool)

(declare-fun res!114095 () Bool)

(assert (=> b!137064 (=> (not res!114095) (not e!91048))))

(assert (=> b!137064 (= res!114095 (= (bitIndex!0 (size!2813 (buf!3220 (_2!6282 lt!213464))) (currentByte!6027 (_2!6282 lt!213464)) (currentBit!6022 (_2!6282 lt!213464))) (bvadd #b0000000000000000000000000000000000000000000000000000000000001000 (bitIndex!0 (size!2813 (buf!3220 thiss!1634)) (currentByte!6027 thiss!1634) (currentBit!6022 thiss!1634)))))))

(declare-fun b!137065 () Bool)

(assert (=> b!137065 (= e!91054 e!91050)))

(declare-fun res!114099 () Bool)

(assert (=> b!137065 (=> (not res!114099) (not e!91050))))

(assert (=> b!137065 (= res!114099 (= (bitIndex!0 (size!2813 (buf!3220 (_2!6282 lt!213463))) (currentByte!6027 (_2!6282 lt!213463)) (currentBit!6022 (_2!6282 lt!213463))) (bvadd (bitIndex!0 (size!2813 (buf!3220 (_2!6282 lt!213464))) (currentByte!6027 (_2!6282 lt!213464)) (currentBit!6022 (_2!6282 lt!213464))) (bvmul #b0000000000000000000000000000000000000000000000000000000000001000 lt!213479))))))

(assert (=> b!137065 (= lt!213479 ((_ sign_extend 32) (bvsub to!404 (bvadd #b00000000000000000000000000000001 from!447))))))

(declare-fun b!137066 () Bool)

(assert (=> b!137066 (= e!91056 (not (arrayRangesEq!216 arr!237 (_2!6280 lt!213454) #b00000000000000000000000000000000 to!404)))))

(declare-fun b!137067 () Bool)

(declare-fun e!91053 () Bool)

(declare-fun array_inv!2602 (array!6215) Bool)

(assert (=> b!137067 (= e!91053 (array_inv!2602 (buf!3220 thiss!1634)))))

(declare-fun b!137068 () Bool)

(declare-fun res!114102 () Bool)

(assert (=> b!137068 (=> (not res!114102) (not e!91051))))

(assert (=> b!137068 (= res!114102 (bvslt from!447 to!404))))

(declare-fun res!114094 () Bool)

(assert (=> start!26706 (=> (not res!114094) (not e!91051))))

(assert (=> start!26706 (= res!114094 (and (bvsle #b00000000000000000000000000000000 from!447) (bvsle from!447 to!404) (bvsle to!404 (size!2813 arr!237))))))

(assert (=> start!26706 e!91051))

(assert (=> start!26706 true))

(assert (=> start!26706 (array_inv!2602 arr!237)))

(declare-fun inv!12 (BitStream!4890) Bool)

(assert (=> start!26706 (and (inv!12 thiss!1634) e!91053)))

(declare-fun b!137061 () Bool)

(assert (=> b!137061 (= e!91052 (= (_2!6283 lt!213461) (_2!6283 lt!213467)))))

(declare-fun b!137069 () Bool)

(declare-fun lt!213475 () tuple2!11920)

(declare-fun lt!213473 () tuple2!11916)

(assert (=> b!137069 (= e!91048 (and (= (_2!6283 lt!213475) (select (arr!3499 arr!237) from!447)) (= (_1!6283 lt!213475) (_2!6281 lt!213473))))))

(assert (=> b!137069 (= lt!213475 (readBytePure!0 (_1!6281 lt!213473)))))

(assert (=> b!137069 (= lt!213473 (reader!0 thiss!1634 (_2!6282 lt!213464)))))

(declare-fun b!137070 () Bool)

(assert (=> b!137070 (= e!91046 true)))

(assert (=> b!137070 (arrayRangesEq!216 arr!237 (_2!6280 lt!213474) #b00000000000000000000000000000000 to!404)))

(declare-fun lt!213476 () Unit!8573)

(declare-fun arrayRangesEqTransitive!18 (array!6215 array!6215 array!6215 (_ BitVec 32) (_ BitVec 32) (_ BitVec 32)) Unit!8573)

(assert (=> b!137070 (= lt!213476 (arrayRangesEqTransitive!18 arr!237 (_2!6280 lt!213459) (_2!6280 lt!213474) #b00000000000000000000000000000000 to!404 to!404))))

(assert (=> b!137070 (arrayRangesEq!216 (_2!6280 lt!213459) (_2!6280 lt!213474) #b00000000000000000000000000000000 to!404)))

(declare-fun lt!213457 () Unit!8573)

(declare-fun arrayRangesEqSymmetricLemma!29 (array!6215 array!6215 (_ BitVec 32) (_ BitVec 32)) Unit!8573)

(assert (=> b!137070 (= lt!213457 (arrayRangesEqSymmetricLemma!29 (_2!6280 lt!213474) (_2!6280 lt!213459) #b00000000000000000000000000000000 to!404))))

(assert (= (and start!26706 res!114094) b!137062))

(assert (= (and b!137062 res!114101) b!137068))

(assert (= (and b!137068 res!114102) b!137056))

(assert (= (and b!137056 res!114093) b!137058))

(assert (= (and b!137058 res!114103) b!137064))

(assert (= (and b!137064 res!114095) b!137059))

(assert (= (and b!137059 res!114104) b!137069))

(assert (= (and b!137058 res!114092) b!137065))

(assert (= (and b!137065 res!114099) b!137060))

(assert (= (and b!137060 res!114096) b!137057))

(assert (= (and b!137057 (not res!114098)) b!137066))

(assert (= (and b!137058 res!114100) b!137063))

(assert (= (and b!137058 res!114105) b!137061))

(assert (= (and b!137058 (not res!114097)) b!137070))

(assert (= start!26706 b!137067))

(declare-fun m!210191 () Bool)

(assert (=> b!137056 m!210191))

(declare-fun m!210193 () Bool)

(assert (=> b!137057 m!210193))

(declare-fun m!210195 () Bool)

(assert (=> b!137057 m!210195))

(declare-fun m!210197 () Bool)

(assert (=> b!137057 m!210197))

(declare-fun m!210199 () Bool)

(assert (=> b!137057 m!210199))

(declare-fun m!210201 () Bool)

(assert (=> b!137067 m!210201))

(declare-fun m!210203 () Bool)

(assert (=> b!137060 m!210203))

(declare-fun m!210205 () Bool)

(assert (=> b!137070 m!210205))

(declare-fun m!210207 () Bool)

(assert (=> b!137070 m!210207))

(declare-fun m!210209 () Bool)

(assert (=> b!137070 m!210209))

(declare-fun m!210211 () Bool)

(assert (=> b!137070 m!210211))

(declare-fun m!210213 () Bool)

(assert (=> b!137063 m!210213))

(declare-fun m!210215 () Bool)

(assert (=> b!137058 m!210215))

(declare-fun m!210217 () Bool)

(assert (=> b!137058 m!210217))

(declare-fun m!210219 () Bool)

(assert (=> b!137058 m!210219))

(declare-fun m!210221 () Bool)

(assert (=> b!137058 m!210221))

(declare-fun m!210223 () Bool)

(assert (=> b!137058 m!210223))

(declare-fun m!210225 () Bool)

(assert (=> b!137058 m!210225))

(declare-fun m!210227 () Bool)

(assert (=> b!137058 m!210227))

(declare-fun m!210229 () Bool)

(assert (=> b!137058 m!210229))

(declare-fun m!210231 () Bool)

(assert (=> b!137058 m!210231))

(declare-fun m!210233 () Bool)

(assert (=> b!137058 m!210233))

(declare-fun m!210235 () Bool)

(assert (=> b!137058 m!210235))

(declare-fun m!210237 () Bool)

(assert (=> b!137058 m!210237))

(declare-fun m!210239 () Bool)

(assert (=> b!137058 m!210239))

(declare-fun m!210241 () Bool)

(assert (=> b!137058 m!210241))

(declare-fun m!210243 () Bool)

(assert (=> b!137058 m!210243))

(declare-fun m!210245 () Bool)

(assert (=> b!137058 m!210245))

(declare-fun m!210247 () Bool)

(assert (=> b!137058 m!210247))

(declare-fun m!210249 () Bool)

(assert (=> b!137058 m!210249))

(declare-fun m!210251 () Bool)

(assert (=> b!137058 m!210251))

(declare-fun m!210253 () Bool)

(assert (=> b!137058 m!210253))

(declare-fun m!210255 () Bool)

(assert (=> b!137058 m!210255))

(assert (=> b!137058 m!210199))

(declare-fun m!210257 () Bool)

(assert (=> b!137058 m!210257))

(declare-fun m!210259 () Bool)

(assert (=> b!137058 m!210259))

(declare-fun m!210261 () Bool)

(assert (=> b!137058 m!210261))

(declare-fun m!210263 () Bool)

(assert (=> b!137058 m!210263))

(assert (=> b!137058 m!210245))

(declare-fun m!210265 () Bool)

(assert (=> b!137058 m!210265))

(assert (=> b!137058 m!210257))

(declare-fun m!210267 () Bool)

(assert (=> b!137059 m!210267))

(declare-fun m!210269 () Bool)

(assert (=> b!137066 m!210269))

(declare-fun m!210271 () Bool)

(assert (=> start!26706 m!210271))

(declare-fun m!210273 () Bool)

(assert (=> start!26706 m!210273))

(declare-fun m!210275 () Bool)

(assert (=> b!137062 m!210275))

(declare-fun m!210277 () Bool)

(assert (=> b!137064 m!210277))

(declare-fun m!210279 () Bool)

(assert (=> b!137064 m!210279))

(declare-fun m!210281 () Bool)

(assert (=> b!137065 m!210281))

(assert (=> b!137065 m!210277))

(assert (=> b!137069 m!210257))

(declare-fun m!210283 () Bool)

(assert (=> b!137069 m!210283))

(declare-fun m!210285 () Bool)

(assert (=> b!137069 m!210285))

(check-sat (not b!137057) (not b!137069) (not b!137066) (not b!137063) (not start!26706) (not b!137058) (not b!137065) (not b!137056) (not b!137064) (not b!137070) (not b!137062) (not b!137059) (not b!137067) (not b!137060))
